NAME : u574.36905.tour
COMMENT : Length = 36905
COMMENT : Found by LKH [Keld Helsgaun] Fri Nov 14 22:46:59 2014
TYPE : TOUR
DIMENSION : 574
TOUR_SECTION
1
568
569
570
567
566
565
564
2
3
4
5
6
563
562
561
560
559
555
556
557
558
7
8
9
10
11
12
554
553
552
551
550
549
548
547
546
13
14
545
544
543
541
542
540
539
538
537
536
529
530
531
532
533
535
534
526
527
528
525
524
523
522
520
521
244
245
246
247
519
518
517
516
515
477
513
514
478
479
480
481
507
506
508
509
510
512
511
505
504
503
502
501
500
499
498
497
493
494
495
496
491
492
490
489
488
487
486
485
484
483
482
472
473
471
470
474
476
475
252
251
253
254
464
465
466
467
469
468
457
459
458
460
463
462
461
396
397
395
256
255
257
258
259
260
261
391
392
393
394
405
404
403
402
398
399
400
401
449
448
450
456
451
455
454
452
453
442
443
447
444
441
445
446
433
432
431
430
434
435
436
440
437
438
439
429
428
427
426
425
424
423
422
421
420
419
418
417
416
415
414
413
412
357
358
356
355
354
353
360
359
411
410
409
408
406
407
361
362
363
364
352
350
351
349
348
347
369
368
367
366
365
376
377
378
375
374
373
372
339
338
340
341
371
370
345
346
344
343
342
337
336
335
334
333
332
331
330
327
329
328
326
325
324
323
322
321
320
318
319
317
316
315
314
313
312
310
311
300
301
309
308
307
306
305
304
303
302
299
298
297
296
295
294
293
292
291
290
289
288
287
286
285
180
181
182
183
184
185
186
187
188
284
283
282
281
280
279
278
277
276
275
274
273
272
271
270
266
267
268
269
379
380
381
382
385
383
384
386
387
388
390
389
265
264
263
262
192
191
193
194
190
189
196
195
197
250
198
199
200
201
249
248
202
203
204
243
242
241
226
225
224
223
227
228
229
230
231
234
235
236
237
240
205
206
207
239
238
208
209
232
233
211
210
179
178
177
176
175
174
173
172
171
170
169
168
153
157
158
159
156
160
161
162
163
164
155
154
167
166
213
214
215
212
216
217
218
219
220
221
222
16
15
17
18
20
33
34
35
31
32
19
21
22
23
24
25
165
26
27
30
28
29
88
89
90
91
92
93
94
95
104
103
102
105
106
107
108
109
110
85
86
87
36
37
38
39
40
41
42
43
80
56
79
81
82
83
84
112
111
113
114
118
119
120
121
122
123
98
97
99
101
100
96
145
147
148
149
150
152
151
146
144
143
142
141
140
139
138
137
136
135
134
133
131
132
124
125
126
70
116
117
115
74
73
72
71
69
68
67
66
127
128
130
129
65
64
63
62
61
76
75
77
78
60
59
58
57
55
54
44
45
46
47
53
52
51
50
49
48
571
572
573
574
-1
EOF
